set C := 1 2 3 4 5 6 7 8 9 10;

param q :=
    1 36.15
    2 21.06
    3 12.08
    4 39.65
    5 29.52
    6 43.78
    7 14.98
    8 39.47
    9 47.82
    10 48.91;
param ca :=
    1 173.59
    2 185.24
    3 166.91
    4 164.43
    5 176.13
    6 179.49
    7 218.83
    8 209.93
    9 200.36
    10 236.79;
param cc :=
    1 37.30
    2 46.62
    3 41.94
    4 33.95
    5 43.40
    6 34.88
    7 36.87
    8 45.18
    9 44.16
    10 33.34;
param cp :=
    1 10.72
    2 5.68
    3 6.59
    4 11.93
    5 11.70
    6 6.30
    7 11.63
    8 11.82
    9 7.35
    10 11.89;
param sMin := 0;
param sMax := 80;

namespace t0
{
    set A :=;
    set AAnt := 1 2;
    set P := 3 4 5 6 7 8 9 10;
    set S := 1;

    param p :=
        1 1.0000000000;
    param d :=
        1 29.54;
    param h := 1;
    param s0 := 20;
}

namespace t1
{
    set AAnt :=;
    set P := 3 4 5 6 7 8 9 10;
    set PAnt := 3 4 5 6 7 8 9 10;
    set S := 1 2 3 4;

    param p :=
        1 0.0210969466
        2 0.3646021627
        3 0.4968651514
        4 0.1174357393;
    param d :=
        1 21.69
        2 10.82
        3 31.57
        4 15.80;
    param h := 1;
}

namespace t2
{
    set A2Ant :=;
    set P := 3 4 5 6 7 8 9 10;
    set PAnt := 3 4 5 6 7 8 9 10;
    set S := 1 2 3 4;

    param p :=
        1 0.6271534858
        2 0.1013952337
        3 0.0892379619
        4 0.1822133187;
    param d :=
        1 36.81
        2 31.43
        3 29.61
        4 24.00;
    param h := 1;
}

namespace t3
{
    set P := 3 4 5 6 7 8 9 10;
    set PAnt := 3 4 5 6 7 8 9 10;
    set S := 1 2 3 4;

    param p :=
        1 0.2221620748
        2 0.2973233183
        3 0.3640553881
        4 0.1164592188;
    param d :=
        1 27.14
        2 29.45
        3 13.20
        4 19.45;
    param h := 1;
}

namespace t4
{
    set P := 3 4 5 6 7 8 9 10;
    set PAnt := 3 4 5 6 7 8 9 10;
    set S := 1 2 3 4;

    param p :=
        1 0.1615342791
        2 0.2655162126
        3 0.1683014699
        4 0.4046480384;
    param d :=
        1 26.41
        2 26.77
        3 46.31
        4 17.97;
    param h := 1;
}

namespace t5
{
    set P := 3 4 5 6 7 8 9 10;
    set PAnt := 3 4 5 6 7 8 9 10;
    set S := 1 2 3 4;

    param p :=
        1 0.0994864716
        2 0.0223915247
        3 0.5075001640
        4 0.3706218396;
    param d :=
        1 40.18
        2 29.92
        3 35.37
        4 10.82;
    param h := 1;
}

namespace t6
{
    set PAnt := 3 4 5 6 7 8 9 10;
    set S := 1 2 3 4;

    param p :=
        1 0.2132551368
        2 0.0654472914
        3 0.1838822267
        4 0.5374153452;
    param d :=
        1 27.20
        2 23.33
        3 17.73
        4 21.85;
    param h := 1;
}
